NAME : data_9_5_tsptw.tsptw
TYPE : TSPTW
DIMENSION : 10
EDGE_WEIGHT_TYPE : EXPLICIT
EDGE_WEIGHT_FORMAT : FULL_MATRIX
EDGE_WEIGHT_SECTION
0 3162 3243 2924 3245 2428 2356 3165 2418 2323
2940 0 773 596 809 874 980 497 1157 1062
2850 874 0 753 126 928 1033 404 1158 1063
2781 324 744 0 781 803 908 527 1085 990
2934 872 128 701 0 876 982 488 1107 1011
2158 786 1110 515 1136 0 251 893 335 240
2149 860 1184 589 1211 204 0 967 539 444
2929 569 323 723 360 898 1003 0 1128 1033
2289 1072 1294 782 1297 286 382 1077 0 111
2178 961 1182 671 1186 174 271 966 95 0
TIME_WINDOW_SECTION
1 0 600000
2 7200 18000
3 5400 10800
4 10800 16200
5 7200 12600
6 5400 10800
7 12600 23400
8 5400 16200
9 5400 10800
10 12600 23400
DEPOT_SECTION
1
-1
EOF